c Bi-partite graph

p edge 32768 32
e 12764 20898
e 6518 29268
e 7071 19969
e 2195 29245
e 11975 31076
e 439 28259
e 15812 22815
e 9046 17883
e 254 19345
e 7964 20552
e 5709 26093
e 15017 28367
e 5458 31861
e 6606 17247
e 10606 21114
e 14351 19786
e 8442 23572
e 2447 28867
e 9981 31983
e 5805 28368
e 9344 18195
e 7596 25302
e 10887 29457
e 14207 22003
e 12086 22976
e 2229 24170
e 16259 16837
e 6723 19156
e 13345 28596
e 8987 23603
e 3156 27722
e 10432 26059
